out/denorm/euclidex/z3/euclidex_denorm_inv1_len5_1.out
unsat
((set-logic NIA)
(declare-fun p!5 () Int)
(declare-fun s!0 () Int)
(declare-fun q!3 () Int)
(declare-fun r!1 () Int)
(declare-fun a!4 () Int)
(declare-fun b!2 () Int)
(proof
(let ((?x722 (* r!1 q!3)))
 (let ((?x41 (* q00 r00)))
 (let ((?x1335 (* (- 1) ?x41)))
 (let ((?x37 (* p00 s00)))
 (let ((?x692 (+ ?x37 ?x1335 ?x722 (* (- 1) (* s!0 p!5)))))
 (let (($x645 (>= ?x692 0)))
 (let (($x643 (= ?x692 0)))
 (let ((?x1104 (* (- 1) (* q!3 a!4 p!5 b!2))))
 (let ((?x1011 (* (- 1) p!5)))
 (let ((?x915 (+ q!3 ?x1011)))
 (let ((?x1010 (+ (* (- 1) a!4) b!2)))
 (let ((?x854 (* (- 1) r!1)))
 (let ((?x906 (+ s!0 ?x854)))
 (let ((?x874 (* s!0 s!0 r!1 r!1 q!3 a!4 a!4)))
 (let ((?x845 (* q!3 q!3 a!4 a!4 b!2 b!2 b!2)))
 (let ((?x610 (* s!0 p!5 p!5 p!5 b!2)))
 (let ((?x1206 (+ ?x610 (* r!1 r!1 r!1 r!1 q!3 a!4 a!4) (* (- 2) (* s!0 r!1 r!1 r!1 q!3 a!4 a!4)) ?x845 ?x874 (* 2 (* s!0 r!1 r!1 r!1 a!4 a!4 p!5)) (* ?x906 ?x906 ?x906 ?x1010 ?x915 ?x915 ?x915 r!1 r!1 a!4 a!4) (* 3 (* q!3 q!3 a!4 a!4 a!4 a!4 b!2)) ?x1104 (* (- 3) (* q!3 q!3 a!4 a!4 a!4 b!2 b!2)) (* (- 1) (* r!1 p!5 p!5 p!5 b!2)) (* 2 (* q!3 a!4 a!4 a!4 a!4 a!4 p!5)) (* a!4 a!4 p!5 p!5 b!2 b!2 b!2) (* (- 3) (* a!4 a!4 a!4 p!5 p!5 b!2 b!2)) (* (- 1) (* a!4 a!4 p!5 p!5)) (* a!4 p!5 p!5 b!2) (* r!1 a!4 p!5 p!5 p!5) (* (- 1) (* s!0 a!4 p!5 p!5 p!5)) (* q!3 a!4 a!4 p!5) (* (- 1) (* q!3 q!3 a!4 a!4 a!4 a!4 a!4)) (* (- 2) (* q!3 a!4 a!4 p!5 b!2 b!2 b!2)) (* 6 (* q!3 a!4 a!4 a!4 p!5 b!2 b!2)) (* (- 6) (* q!3 a!4 a!4 a!4 a!4 p!5 b!2)) (* 3 (* a!4 a!4 a!4 a!4 p!5 p!5 b!2)) (* (- 1) (* a!4 a!4 a!4 a!4 a!4 p!5 p!5)) (* (- 1) (* r!1 r!1 r!1 r!1 a!4 a!4 p!5)) (* (- 1) (* s!0 s!0 r!1 r!1 a!4 a!4 p!5)))))
 (let ((?x1158 (* s!0 p!5)))
 (let ((?x147 (* (- 1) ?x37)))
 (let ((?x680 (+ ?x147 ?x41 (* (- 1) ?x722) ?x1158)))
 (let ((?x1172 (* ?x680 ?x1206)))
 (let (($x126 (= ?x1172 0)))
 (let ((?x1366 (* q!3 q!3 b!2 b!2 b!2 b!2 b!2)))
 (let ((?x1216 (* s!0 s!0 s!0 s!0 s!0 q!3 q!3 q!3 b!2 b!2 b!2)))
 (let ((?x1214 (* s!0 s!0 s!0 s!0 s!0 q!3 q!3 q!3 a!4 b!2 b!2)))
 (let ((?x1043 (* s!0 s!0 s!0 s!0 r!1 q!3 q!3 q!3 b!2 b!2 b!2)))
 (let ((?x1042 (* s!0 s!0 s!0 s!0 r!1 q!3 q!3 q!3 a!4 b!2 b!2)))
 (let ((?x1000 (* (- 1) (* q!3 q!3 b!2 b!2))))
 (let ((?x971 (* s!0 s!0 s!0 s!0 s!0 q!3 q!3 q!3 a!4 a!4 b!2)))
 (let ((?x663 (* s!0 s!0 s!0 r!1 r!1 q!3 q!3 q!3 b!2 b!2 b!2)))
 (let ((?x662 (* s!0 s!0 s!0 r!1 r!1 q!3 q!3 q!3 a!4 b!2 b!2)))
 (let ((?x493 (* s!0 s!0 s!0 s!0 r!1 q!3 q!3 q!3 a!4 a!4 b!2)))
 (let ((?x313 (* s!0 s!0 s!0 r!1 r!1 q!3 q!3 q!3 a!4 a!4 b!2)))
 (let ((?x963 (+ ?x313 (* 4 (* s!0 s!0 s!0 r!1 q!3 a!4 b!2)) (* (- 2) (* s!0 s!0 s!0 s!0 q!3 a!4 b!2)) (* (- 2) ?x493) (* (- 2) (* s!0 s!0 r!1 r!1 q!3 a!4 b!2)) (* s!0 s!0 s!0 s!0 q!3 a!4 a!4) (* s!0 s!0 s!0 s!0 q!3 b!2 b!2) ?x610 (* (- 2) ?x662) ?x663 (* (- 1) (* s!0 q!3 q!3 q!3 b!2)) (* (- 3) (* s!0 q!3 p!5 p!5 b!2)) ?x845 (* 3 (* s!0 q!3 q!3 p!5 b!2)) ?x874 (* s!0 s!0 r!1 r!1 q!3 b!2 b!2) (* (- 2) (* s!0 s!0 s!0 r!1 q!3 b!2 b!2)) (* (- 2) (* s!0 s!0 s!0 r!1 q!3 a!4 a!4)) ?x1104 ?x971 ?x1000 (* 4 ?x1042) (* (- 2) ?x1043) (* (- 2) (* q!3 q!3 a!4 b!2 b!2 b!2 b!2)) (* q!3 p!5 b!2 b!2) (* q!3 q!3 a!4 b!2) (* (- 2) ?x1214) ?x1216 ?x1366)))
 (let ((?x964 (* ?x680 ?x963)))
 (let (($x907 (= ?x964 0)))
 (let (($x1124 (not $x907)))
 (let (($x1063 (or $x1124 (not $x126))))
 (let ((?x914 (+ (* s00 a00 q!3) (* p00 b00 s!0) (* (- 1) (* q00 a00 s!0)) (* (- 1) (* p00 s00 b!2)) (* q00 r00 b!2) (* (- 1) (* r00 b00 q!3)))))
 (let ((?x603 (+ (* q00 r00 a!4) (* p00 b00 r!1) (* (- 1) (* p00 s00 a!4)) (* (- 1) (* r00 b00 p!5)) (* s00 a00 p!5) (* (- 1) (* q00 a00 r!1)))))
 (let ((?x395 (* p!5 b!2)))
 (let ((?x142 (* q00 a00)))
 (let (($x356 (= (+ ?x142 (* (- 1) (* p00 b00)) ?x395 (* (- 1) (* q!3 a!4))) 0)))
 (let ((?x138 (* s00 a00)))
 (let ((?x225 (+ ?x138 (* (- 1) (* r00 b00)) (* r!1 b!2) (* (- 1) (* s!0 a!4)))))
 (let (($x1378 (and $x643 (= ?x225 0) $x356 (= ?x603 0) (= ?x914 0) $x1063)))
 (let ((?x855 (* (- 1) (* p!5 a!4 q!3 b!2))))
 (let ((?x983 (* p!5 p!5 p!5 b!2 s!0)))
 (let ((?x1383 (* a!4 a!4 q!3 q!3 b!2 b!2 b!2)))
 (let ((?x888 (* a!4 a!4 q!3 r!1 r!1 s!0 s!0)))
 (let ((?x1013 (+ ?x1011 q!3)))
 (let ((?x1006 (+ ?x854 s!0)))
 (let ((?x1461 (+ (* ?x1006 ?x1006 ?x1006 ?x1010 ?x1013 ?x1013 ?x1013 r!1 r!1 a!4 a!4) ?x888 ?x1383 ?x983 ?x855 (* 2 (* p!5 a!4 a!4 r!1 r!1 r!1 s!0)) (* a!4 a!4 q!3 r!1 r!1 r!1 r!1) (* (- 1) (* p!5 a!4 a!4 r!1 r!1 r!1 r!1)) (* (- 2) (* a!4 a!4 q!3 r!1 r!1 r!1 s!0)) (* (- 1) (* p!5 a!4 a!4 r!1 r!1 s!0 s!0)) (* (- 1) (* p!5 p!5 a!4 a!4 a!4 a!4 a!4)) (* 3 (* p!5 p!5 a!4 a!4 a!4 a!4 b!2)) (* (- 3) (* p!5 p!5 a!4 a!4 a!4 b!2 b!2)) (* p!5 p!5 a!4 a!4 b!2 b!2 b!2) (* 2 (* p!5 a!4 a!4 a!4 a!4 a!4 q!3)) (* (- 6) (* p!5 a!4 a!4 a!4 a!4 q!3 b!2)) (* 6 (* p!5 a!4 a!4 a!4 q!3 b!2 b!2)) (* (- 2) (* p!5 a!4 a!4 q!3 b!2 b!2 b!2)) (* (- 1) (* a!4 a!4 a!4 a!4 a!4 q!3 q!3)) (* 3 (* a!4 a!4 a!4 a!4 q!3 q!3 b!2)) (* (- 3) (* a!4 a!4 a!4 q!3 q!3 b!2 b!2)) (* p!5 p!5 p!5 a!4 r!1) (* (- 1) (* p!5 p!5 p!5 b!2 r!1)) (* (- 1) (* p!5 p!5 p!5 a!4 s!0)) (* p!5 a!4 a!4 q!3) (* p!5 p!5 a!4 b!2) (* (- 1) (* p!5 p!5 a!4 a!4)))))
 (let ((?x1348 (+ (* p!5 s!0) ?x147 ?x41 (* (- 1) (* q!3 r!1)))))
 (let ((?x989 (* q!3 q!3 q!3 b!2 b!2 b!2 s!0 s!0 s!0 s!0 s!0)))
 (let ((?x986 (* a!4 q!3 q!3 q!3 b!2 b!2 s!0 s!0 s!0 s!0 s!0)))
 (let ((?x985 (* a!4 a!4 q!3 q!3 q!3 b!2 s!0 s!0 s!0 s!0 s!0)))
 (let ((?x162 (* q!3 q!3 q!3 b!2 b!2 b!2 r!1 s!0 s!0 s!0 s!0)))
 (let ((?x160 (* a!4 q!3 q!3 q!3 b!2 b!2 r!1 s!0 s!0 s!0 s!0)))
 (let ((?x140 (* a!4 a!4 q!3 q!3 q!3 b!2 r!1 s!0 s!0 s!0 s!0)))
 (let ((?x137 (* q!3 q!3 q!3 b!2 b!2 b!2 r!1 r!1 s!0 s!0 s!0)))
 (let ((?x278 (* a!4 q!3 q!3 q!3 b!2 b!2 r!1 r!1 s!0 s!0 s!0)))
 (let ((?x271 (* a!4 a!4 q!3 q!3 q!3 b!2 r!1 r!1 s!0 s!0 s!0)))
 (let ((?x1003 (+ ?x888 (* (- 2) (* a!4 q!3 b!2 r!1 r!1 s!0 s!0)) (* q!3 b!2 b!2 r!1 r!1 s!0 s!0) (* (- 2) (* a!4 a!4 q!3 r!1 s!0 s!0 s!0)) (* 4 (* a!4 q!3 b!2 r!1 s!0 s!0 s!0)) (* (- 2) (* q!3 b!2 b!2 r!1 s!0 s!0 s!0)) (* a!4 a!4 q!3 s!0 s!0 s!0 s!0) (* (- 2) (* a!4 q!3 b!2 s!0 s!0 s!0 s!0)) (* q!3 b!2 b!2 s!0 s!0 s!0 s!0) ?x1383 (* (- 2) (* a!4 q!3 q!3 b!2 b!2 b!2 b!2)) ?x1366 ?x983 (* (- 3) (* p!5 p!5 q!3 b!2 s!0)) (* 3 (* p!5 q!3 q!3 b!2 s!0)) (* (- 1) (* q!3 q!3 q!3 b!2 s!0)) ?x271 (* (- 2) ?x278) ?x137 (* (- 2) ?x140) (* 4 ?x160) (* (- 2) ?x162) ?x985 (* (- 2) ?x986) ?x989 ?x855 (* p!5 q!3 b!2 b!2) (* a!4 q!3 q!3 b!2) ?x1000)))
 (let ((?x1095 (+ (* b!2 q00 r00) (* (- 1) (* b!2 p00 s00)) (* s!0 p00 b00) (* (- 1) (* q!3 r00 b00)) (* q!3 s00 a00) (* (- 1) (* s!0 q00 a00)))))
 (let ((?x459 (+ (* a!4 p00 s00) (* (- 1) (* a!4 q00 r00)) (* p!5 r00 b00) (* (- 1) (* r!1 p00 b00)) (* (- 1) (* p!5 s00 a00)) (* r!1 q00 a00))))
 (let (($x945 (= (+ (* a!4 q!3) (* (- 1) ?x142) (* p00 b00) (* (- 1) ?x395)) 0)))
 (let ((?x156 (* r00 b00)))
 (let ((?x145 (* (- 1) ?x138)))
 (let (($x1149 (and (= ?x1348 0) (= (+ (* a!4 s!0) (* (- 1) (* b!2 r!1)) ?x145 ?x156) 0) $x945 (= ?x459 0) (= ?x1095 0) (or (not (= (* ?x1348 ?x1003) 0)) (not (= (* ?x1348 ?x1461) 0))))))
 (let (($x637 (exists ((p Int) (a Int) (q Int) (b Int) (r Int) (s Int) )(! (let ((?x1333 (* (- 1) (* p p a a))))
 (let ((?x1372 (* p p a b)))
 (let ((?x1362 (* p a a q)))
 (let ((?x1277 (* (- 1) (* p p p a s))))
 (let ((?x1273 (* (- 1) (* p p p b r))))
 (let ((?x1261 (* p p p a r)))
 (let ((?x1239 (* (- 3) (* a a a q q b b))))
 (let ((?x1238 (* 3 (* a a a a q q b))))
 (let ((?x1176 (* (- 1) (* a a a a a q q))))
 (let ((?x1237 (* (- 2) (* p a a q b b b))))
 (let ((?x1236 (* 6 (* p a a a q b b))))
 (let ((?x1234 (* (- 6) (* p a a a a q b))))
 (let ((?x1232 (* 2 (* p a a a a a q))))
 (let ((?x1044 (* p p a a b b b)))
 (let ((?x1231 (* (- 3) (* p p a a a b b))))
 (let ((?x1230 (* 3 (* p p a a a a b))))
 (let ((?x990 (* (- 1) (* p p a a a a a))))
 (let ((?x919 (* (- 1) (* p a a r r s s))))
 (let ((?x927 (* (- 2) (* a a q r r r s))))
 (let ((?x881 (* (- 1) (* p a a r r r r))))
 (let ((?x879 (* a a q r r r r)))
 (let ((?x926 (* 2 (* p a a r r r s))))
 (let ((?x820 (* (- 1) (* p a q b))))
 (let ((?x562 (* p p p b s)))
 (let ((?x512 (* a a q q b b b)))
 (let ((?x354 (* a a q r r s s)))
 (let ((?x352 (* (- 1) p)))
 (let ((?x374 (+ ?x352 q)))
 (let ((?x935 (* (- 1) a)))
 (let ((?x939 (+ ?x935 b)))
 (let ((?x636 (* (- 1) r)))
 (let ((?x657 (+ ?x636 s)))
 (let ((?x1419 (+ (* ?x657 ?x657 ?x657 ?x939 ?x374 ?x374 ?x374 r r a a) ?x354 ?x512 ?x562 ?x820 ?x926 ?x879 ?x881 ?x927 ?x919 ?x990 ?x1230 ?x1231 ?x1044 ?x1232 ?x1234 ?x1236 ?x1237 ?x1176 ?x1238 ?x1239 ?x1261 ?x1273 ?x1277 ?x1362 ?x1372 ?x1333)))
 (let ((?x131 (* (- 1) (* q r))))
 (let ((?x41 (* q00 r00)))
 (let ((?x37 (* p00 s00)))
 (let ((?x147 (* (- 1) ?x37)))
 (let ((?x33 (* p s)))
 (let ((?x161 (+ ?x33 ?x147 ?x41 ?x131)))
 (let ((?x790 (* (- 2) (* a q q q b b s s s s s))))
 (let ((?x789 (* (- 2) (* q q q b b b r s s s s))))
 (let ((?x788 (* 4 (* a q q q b b r s s s s))))
 (let ((?x787 (* (- 2) (* a a q q q b r s s s s))))
 (let ((?x786 (* (- 2) (* a q q q b b r r s s s))))
 (let ((?x860 (+ ?x354 (* (- 2) (* a q b r r s s)) (* q b b r r s s) (* (- 2) (* a a q r s s s)) (* 4 (* a q b r s s s)) (* (- 2) (* q b b r s s s)) (* a a q s s s s) (* (- 2) (* a q b s s s s)) (* q b b s s s s) ?x512 (* (- 2) (* a q q b b b b)) (* q q b b b b b) ?x562 (* (- 3) (* p p q b s)) (* 3 (* p q q b s)) (* (- 1) (* q q q b s)) (* a a q q q b r r s s s) ?x786 (* q q q b b b r r s s s) ?x787 ?x788 ?x789 (* a a q q q b s s s s s) ?x790 (* q q q b b b s s s s s) ?x820 (* p q b b) (* a q q b) (* (- 1) (* q q b b)))))
 (let ((?x72 (* b q00 r00)))
 (let ((?x318 (+ ?x72 (* (- 1) (* b p00 s00)) (* s p00 b00) (* (- 1) (* q r00 b00)) (* q s00 a00) (* (- 1) (* s q00 a00)))))
 (let (($x323 (= ?x318 0)))
 (let ((?x63 (* a p00 s00)))
 (let ((?x254 (+ ?x63 (* (- 1) (* a q00 r00)) (* p r00 b00) (* (- 1) (* r p00 b00)) (* (- 1) (* p s00 a00)) (* r q00 a00))))
 (let (($x255 (= ?x254 0)))
 (let ((?x143 (* p00 b00)))
 (let ((?x142 (* q00 a00)))
 (let ((?x186 (* (- 1) ?x142)))
 (let (($x189 (= (+ (* a q) ?x186 ?x143 (* (- 1) (* p b))) 0)))
 (let ((?x156 (* r00 b00)))
 (let ((?x138 (* s00 a00)))
 (let ((?x145 (* (- 1) ?x138)))
 (let ((?x49 (* a s)))
 (let (($x171 (= (+ ?x49 (* (- 1) (* b r)) ?x145 ?x156) 0)))
 (let (($x166 (= ?x161 0)))
 (and $x166 $x171 $x189 $x255 $x323 (or (not (= (* ?x161 ?x860) 0)) (not (= (* ?x161 ?x1419) 0))))))))))))))))))))))))))))))))))))))))))))))))))))))))))))))))) :qid k!39))
 ))
 (let (($x1033 (exists ((p Int) (a Int) (q Int) (b Int) (r Int) (s Int) )(! (let ((?x1146 (* (- 1) (* (+ b (* (- 1) a)) (+ q (* (- 1) p)) a p))))
 (let ((?x352 (* (- 1) p)))
 (let ((?x464 (+ q ?x352)))
 (let ((?x935 (* (- 1) a)))
 (let ((?x900 (+ b ?x935)))
 (let ((?x636 (* (- 1) r)))
 (let ((?x1138 (+ s ?x636)))
 (let ((?x716 (+ (* ?x1138 ?x1138 ?x464 r r a a) (* ?x900 ?x900 ?x900 ?x464 ?x464 a a) (* ?x1138 ?x900 p p p) (* ?x1138 ?x1138 ?x1138 ?x900 ?x464 ?x464 ?x464 r r a a) ?x1146)))
 (let ((?x41 (* q00 r00)))
 (let ((?x37 (* p00 s00)))
 (let ((?x147 (* (- 1) ?x37)))
 (let (($x938 (= (* (+ (* (- 1) (* ?x464 r)) (* ?x1138 p) ?x147 ?x41) ?x716) 0)))
 (let ((?x549 (* (- 1) (* (+ a (* (- 1) b)) (+ p (* (- 1) q)) b q))))
 (let ((?x669 (+ a (* (- 1) b))))
 (let ((?x264 (* (- 1) s)))
 (let ((?x1322 (+ r ?x264)))
 (let ((?x416 (+ p (* (- 1) q))))
 (let ((?x773 (+ (* ?x1322 ?x1322 ?x669 ?x669 s s q) (* ?x669 ?x669 b b b q q) (* ?x416 ?x416 ?x416 s b) (* ?x1322 ?x1322 ?x669 ?x669 s s s b q q q) ?x549)))
 (let (($x466 (= (* (+ (* (- 1) (* ?x1322 q)) (* ?x416 s) ?x147 ?x41) ?x773) 0)))
 (let (($x943 (or (not $x466) (not $x938))))
 (let ((?x73 (* b00 p00 s)))
 (let ((?x676 (+ (* q00 r00 b) ?x73 (* (- 1) (* b00 r00 q)) (* (- 1) (* p00 s00 b)) (* a00 s00 q) (* (- 1) (* a00 q00 s)))))
 (let (($x775 (= ?x676 0)))
 (let ((?x69 (* a00 q00 r)))
 (let ((?x1203 (* p00 s00 a)))
 (let ((?x1332 (* b00 r00 p)))
 (let ((?x1331 (+ ?x1332 ?x1203 (* (- 1) (* b00 p00 r)) (* (- 1) (* q00 r00 a)) (* (- 1) (* a00 s00 p)) ?x69)))
 (let ((?x57 (* b00 p00)))
 (let ((?x842 (* q a)))
 (let (($x572 (= (+ ?x842 (* (- 1) (* a00 q00)) ?x57 (* (- 1) (* b p))) 0)))
 (let ((?x47 (* a00 s00)))
 (let ((?x816 (* r b)))
 (let (($x417 (= (+ ?x816 ?x47 (* (- 1) (* s a)) (* (- 1) (* b00 r00))) 0)))
 (let (($x801 (= (+ (* r q) (* (- 1) (* s p)) ?x37 (* (- 1) ?x41)) 0)))
 (and $x801 $x417 $x572 (= ?x1331 0) $x775 $x943))))))))))))))))))))))))))))))))))) :qid k!39))
 ))
 (let ((?x639 (lambda ((p Int) (a Int) (q Int) (b Int) (r Int) (s Int) )(let ((?x1333 (* (- 1) (* p p a a))))
 (let ((?x1372 (* p p a b)))
 (let ((?x1362 (* p a a q)))
 (let ((?x1277 (* (- 1) (* p p p a s))))
 (let ((?x1273 (* (- 1) (* p p p b r))))
 (let ((?x1261 (* p p p a r)))
 (let ((?x1239 (* (- 3) (* a a a q q b b))))
 (let ((?x1238 (* 3 (* a a a a q q b))))
 (let ((?x1176 (* (- 1) (* a a a a a q q))))
 (let ((?x1237 (* (- 2) (* p a a q b b b))))
 (let ((?x1236 (* 6 (* p a a a q b b))))
 (let ((?x1234 (* (- 6) (* p a a a a q b))))
 (let ((?x1232 (* 2 (* p a a a a a q))))
 (let ((?x1044 (* p p a a b b b)))
 (let ((?x1231 (* (- 3) (* p p a a a b b))))
 (let ((?x1230 (* 3 (* p p a a a a b))))
 (let ((?x990 (* (- 1) (* p p a a a a a))))
 (let ((?x919 (* (- 1) (* p a a r r s s))))
 (let ((?x927 (* (- 2) (* a a q r r r s))))
 (let ((?x881 (* (- 1) (* p a a r r r r))))
 (let ((?x879 (* a a q r r r r)))
 (let ((?x926 (* 2 (* p a a r r r s))))
 (let ((?x820 (* (- 1) (* p a q b))))
 (let ((?x562 (* p p p b s)))
 (let ((?x512 (* a a q q b b b)))
 (let ((?x354 (* a a q r r s s)))
 (let ((?x352 (* (- 1) p)))
 (let ((?x374 (+ ?x352 q)))
 (let ((?x935 (* (- 1) a)))
 (let ((?x939 (+ ?x935 b)))
 (let ((?x636 (* (- 1) r)))
 (let ((?x657 (+ ?x636 s)))
 (let ((?x1419 (+ (* ?x657 ?x657 ?x657 ?x939 ?x374 ?x374 ?x374 r r a a) ?x354 ?x512 ?x562 ?x820 ?x926 ?x879 ?x881 ?x927 ?x919 ?x990 ?x1230 ?x1231 ?x1044 ?x1232 ?x1234 ?x1236 ?x1237 ?x1176 ?x1238 ?x1239 ?x1261 ?x1273 ?x1277 ?x1362 ?x1372 ?x1333)))
 (let ((?x131 (* (- 1) (* q r))))
 (let ((?x41 (* q00 r00)))
 (let ((?x37 (* p00 s00)))
 (let ((?x147 (* (- 1) ?x37)))
 (let ((?x33 (* p s)))
 (let ((?x161 (+ ?x33 ?x147 ?x41 ?x131)))
 (let ((?x790 (* (- 2) (* a q q q b b s s s s s))))
 (let ((?x789 (* (- 2) (* q q q b b b r s s s s))))
 (let ((?x788 (* 4 (* a q q q b b r s s s s))))
 (let ((?x787 (* (- 2) (* a a q q q b r s s s s))))
 (let ((?x786 (* (- 2) (* a q q q b b r r s s s))))
 (let ((?x860 (+ ?x354 (* (- 2) (* a q b r r s s)) (* q b b r r s s) (* (- 2) (* a a q r s s s)) (* 4 (* a q b r s s s)) (* (- 2) (* q b b r s s s)) (* a a q s s s s) (* (- 2) (* a q b s s s s)) (* q b b s s s s) ?x512 (* (- 2) (* a q q b b b b)) (* q q b b b b b) ?x562 (* (- 3) (* p p q b s)) (* 3 (* p q q b s)) (* (- 1) (* q q q b s)) (* a a q q q b r r s s s) ?x786 (* q q q b b b r r s s s) ?x787 ?x788 ?x789 (* a a q q q b s s s s s) ?x790 (* q q q b b b s s s s s) ?x820 (* p q b b) (* a q q b) (* (- 1) (* q q b b)))))
 (let ((?x72 (* b q00 r00)))
 (let ((?x318 (+ ?x72 (* (- 1) (* b p00 s00)) (* s p00 b00) (* (- 1) (* q r00 b00)) (* q s00 a00) (* (- 1) (* s q00 a00)))))
 (let (($x323 (= ?x318 0)))
 (let ((?x63 (* a p00 s00)))
 (let ((?x254 (+ ?x63 (* (- 1) (* a q00 r00)) (* p r00 b00) (* (- 1) (* r p00 b00)) (* (- 1) (* p s00 a00)) (* r q00 a00))))
 (let (($x255 (= ?x254 0)))
 (let ((?x143 (* p00 b00)))
 (let ((?x142 (* q00 a00)))
 (let ((?x186 (* (- 1) ?x142)))
 (let (($x189 (= (+ (* a q) ?x186 ?x143 (* (- 1) (* p b))) 0)))
 (let ((?x156 (* r00 b00)))
 (let ((?x138 (* s00 a00)))
 (let ((?x145 (* (- 1) ?x138)))
 (let ((?x49 (* a s)))
 (let (($x171 (= (+ ?x49 (* (- 1) (* b r)) ?x145 ?x156) 0)))
 (let (($x166 (= ?x161 0)))
 (let (($x1297 (and $x166 $x171 $x189 $x255 $x323 (or (not (= (* ?x161 ?x860) 0)) (not (= (* ?x161 ?x1419) 0))))))
 (let ((?x464 (+ q ?x352)))
 (let ((?x900 (+ b ?x935)))
 (let ((?x1138 (+ s ?x636)))
 (let ((?x716 (+ (* ?x1138 ?x1138 ?x464 r r a a) (* ?x900 ?x900 ?x900 ?x464 ?x464 a a) (* ?x1138 ?x900 p p p) (* ?x1138 ?x1138 ?x1138 ?x900 ?x464 ?x464 ?x464 r r a a) (* (- 1) (* ?x900 ?x464 a p)))))
 (let (($x938 (= (* (+ (* (- 1) (* ?x464 r)) (* ?x1138 p) ?x147 ?x41) ?x716) 0)))
 (let ((?x549 (* (- 1) (* (+ a (* (- 1) b)) (+ p (* (- 1) q)) b q))))
 (let ((?x669 (+ a (* (- 1) b))))
 (let ((?x264 (* (- 1) s)))
 (let ((?x1322 (+ r ?x264)))
 (let ((?x416 (+ p (* (- 1) q))))
 (let ((?x773 (+ (* ?x1322 ?x1322 ?x669 ?x669 s s q) (* ?x669 ?x669 b b b q q) (* ?x416 ?x416 ?x416 s b) (* ?x1322 ?x1322 ?x669 ?x669 s s s b q q q) ?x549)))
 (let (($x466 (= (* (+ (* (- 1) (* ?x1322 q)) (* ?x416 s) ?x147 ?x41) ?x773) 0)))
 (let (($x943 (or (not $x466) (not $x938))))
 (let ((?x73 (* b00 p00 s)))
 (let ((?x676 (+ (* q00 r00 b) ?x73 (* (- 1) (* b00 r00 q)) (* (- 1) (* p00 s00 b)) (* a00 s00 q) (* (- 1) (* a00 q00 s)))))
 (let (($x775 (= ?x676 0)))
 (let ((?x69 (* a00 q00 r)))
 (let ((?x1203 (* p00 s00 a)))
 (let ((?x1332 (* b00 r00 p)))
 (let ((?x1331 (+ ?x1332 ?x1203 (* (- 1) (* b00 p00 r)) (* (- 1) (* q00 r00 a)) (* (- 1) (* a00 s00 p)) ?x69)))
 (let ((?x57 (* b00 p00)))
 (let ((?x842 (* q a)))
 (let (($x572 (= (+ ?x842 (* (- 1) (* a00 q00)) ?x57 (* (- 1) (* b p))) 0)))
 (let ((?x47 (* a00 s00)))
 (let ((?x816 (* r b)))
 (let (($x417 (= (+ ?x816 ?x47 (* (- 1) (* s a)) (* (- 1) (* b00 r00))) 0)))
 (let (($x801 (= (+ (* r q) (* (- 1) (* s p)) ?x37 (* (- 1) ?x41)) 0)))
 (let (($x206 (and $x801 $x417 $x572 (= ?x1331 0) $x775 $x943)))
 (rewrite (= $x206 $x1297)))))))))))))))))))))))))))))))))))))))))))))))))))))))))))))))))))))))))))))))))))))))))))))
 ))
 (let (($x1195 (exists ((p Int) (a Int) (q Int) (b Int) (r Int) (s Int) )(! (let ((?x1146 (* (- 1) (* (+ b (* (- 1) a)) (+ q (* (- 1) p)) a p))))
 (let ((?x352 (* (- 1) p)))
 (let ((?x464 (+ q ?x352)))
 (let ((?x935 (* (- 1) a)))
 (let ((?x900 (+ b ?x935)))
 (let ((?x636 (* (- 1) r)))
 (let ((?x1138 (+ s ?x636)))
 (let ((?x716 (+ (* ?x1138 ?x1138 ?x464 r r a a) (* ?x900 ?x900 ?x900 ?x464 ?x464 a a) (* ?x1138 ?x900 p p p) (* ?x1138 ?x1138 ?x1138 ?x900 ?x464 ?x464 ?x464 r r a a) ?x1146)))
 (let ((?x41 (* q00 r00)))
 (let ((?x37 (* p00 s00)))
 (let ((?x147 (* (- 1) ?x37)))
 (let (($x938 (= (* (+ (* (- 1) (* ?x464 r)) (* ?x1138 p) ?x147 ?x41) ?x716) 0)))
 (let ((?x549 (* (- 1) (* (+ a (* (- 1) b)) (+ p (* (- 1) q)) b q))))
 (let ((?x669 (+ a (* (- 1) b))))
 (let ((?x264 (* (- 1) s)))
 (let ((?x1322 (+ r ?x264)))
 (let ((?x416 (+ p (* (- 1) q))))
 (let ((?x773 (+ (* ?x1322 ?x1322 ?x669 ?x669 s s q) (* ?x669 ?x669 b b b q q) (* ?x416 ?x416 ?x416 s b) (* ?x1322 ?x1322 ?x669 ?x669 s s s b q q q) ?x549)))
 (let (($x466 (= (* (+ (* (- 1) (* ?x1322 q)) (* ?x416 s) ?x147 ?x41) ?x773) 0)))
 (let (($x943 (or (not $x466) (not $x938))))
 (let ((?x73 (* b00 p00 s)))
 (let ((?x676 (+ (* q00 r00 b) ?x73 (* (- 1) (* b00 r00 q)) (* (- 1) (* p00 s00 b)) (* a00 s00 q) (* (- 1) (* a00 q00 s)))))
 (let (($x775 (= ?x676 0)))
 (let ((?x520 (* a00 s00 p)))
 (let ((?x135 (* q00 r00 a)))
 (let ((?x65 (* b00 p00 r)))
 (let ((?x1142 (+ (* (- 1) (* b00 r00 p)) (* (- 1) (* p00 s00 a)) ?x65 ?x135 ?x520 (* (- 1) (* a00 q00 r)))))
 (let ((?x59 (* b p)))
 (let ((?x55 (* a00 q00)))
 (let (($x559 (= (+ (* (- 1) (* q a)) ?x55 (* (- 1) (* b00 p00)) ?x59) 0)))
 (let ((?x51 (* b00 r00)))
 (let ((?x1317 (* s a)))
 (let (($x198 (= (+ (* (- 1) (* r b)) (* (- 1) (* a00 s00)) ?x1317 ?x51) 0)))
 (and (= (+ (* (- 1) (* r q)) (* s p) ?x147 ?x41) 0) $x198 $x559 (= ?x1142 0) $x775 $x943)))))))))))))))))))))))))))))))))) :qid k!39))
 ))
 (let ((?x839 (lambda ((p Int) (a Int) (q Int) (b Int) (r Int) (s Int) )(let ((?x1146 (* (- 1) (* (+ b (* (- 1) a)) (+ q (* (- 1) p)) a p))))
 (let ((?x352 (* (- 1) p)))
 (let ((?x464 (+ q ?x352)))
 (let ((?x935 (* (- 1) a)))
 (let ((?x900 (+ b ?x935)))
 (let ((?x636 (* (- 1) r)))
 (let ((?x1138 (+ s ?x636)))
 (let ((?x716 (+ (* ?x1138 ?x1138 ?x464 r r a a) (* ?x900 ?x900 ?x900 ?x464 ?x464 a a) (* ?x1138 ?x900 p p p) (* ?x1138 ?x1138 ?x1138 ?x900 ?x464 ?x464 ?x464 r r a a) ?x1146)))
 (let ((?x41 (* q00 r00)))
 (let ((?x37 (* p00 s00)))
 (let ((?x147 (* (- 1) ?x37)))
 (let (($x938 (= (* (+ (* (- 1) (* ?x464 r)) (* ?x1138 p) ?x147 ?x41) ?x716) 0)))
 (let ((?x549 (* (- 1) (* (+ a (* (- 1) b)) (+ p (* (- 1) q)) b q))))
 (let ((?x669 (+ a (* (- 1) b))))
 (let ((?x264 (* (- 1) s)))
 (let ((?x1322 (+ r ?x264)))
 (let ((?x416 (+ p (* (- 1) q))))
 (let ((?x773 (+ (* ?x1322 ?x1322 ?x669 ?x669 s s q) (* ?x669 ?x669 b b b q q) (* ?x416 ?x416 ?x416 s b) (* ?x1322 ?x1322 ?x669 ?x669 s s s b q q q) ?x549)))
 (let (($x466 (= (* (+ (* (- 1) (* ?x1322 q)) (* ?x416 s) ?x147 ?x41) ?x773) 0)))
 (let (($x943 (or (not $x466) (not $x938))))
 (let ((?x73 (* b00 p00 s)))
 (let ((?x676 (+ (* q00 r00 b) ?x73 (* (- 1) (* b00 r00 q)) (* (- 1) (* p00 s00 b)) (* a00 s00 q) (* (- 1) (* a00 q00 s)))))
 (let (($x775 (= ?x676 0)))
 (let ((?x69 (* a00 q00 r)))
 (let ((?x1203 (* p00 s00 a)))
 (let ((?x1332 (* b00 r00 p)))
 (let ((?x1331 (+ ?x1332 ?x1203 (* (- 1) (* b00 p00 r)) (* (- 1) (* q00 r00 a)) (* (- 1) (* a00 s00 p)) ?x69)))
 (let ((?x57 (* b00 p00)))
 (let ((?x842 (* q a)))
 (let (($x572 (= (+ ?x842 (* (- 1) (* a00 q00)) ?x57 (* (- 1) (* b p))) 0)))
 (let ((?x47 (* a00 s00)))
 (let ((?x816 (* r b)))
 (let (($x417 (= (+ ?x816 ?x47 (* (- 1) (* s a)) (* (- 1) (* b00 r00))) 0)))
 (let (($x801 (= (+ (* r q) (* (- 1) (* s p)) ?x37 (* (- 1) ?x41)) 0)))
 (let (($x206 (and $x801 $x417 $x572 (= ?x1331 0) $x775 $x943)))
 (let ((?x520 (* a00 s00 p)))
 (let ((?x135 (* q00 r00 a)))
 (let ((?x65 (* b00 p00 r)))
 (let (($x575 (= (+ (* (- 1) ?x1332) (* (- 1) ?x1203) ?x65 ?x135 ?x520 (* (- 1) ?x69)) 0)))
 (let (($x559 (= (+ (* (- 1) ?x842) (* a00 q00) (* (- 1) ?x57) (* b p)) 0)))
 (let (($x198 (= (+ (* (- 1) ?x816) (* (- 1) ?x47) (* s a) (* b00 r00)) 0)))
 (let (($x439 (and (= (+ (* (- 1) (* r q)) (* s p) ?x147 ?x41) 0) $x198 $x559 $x575 $x775 $x943)))
 (rewrite (= $x439 $x206)))))))))))))))))))))))))))))))))))))))))))))
 ))
 (let (($x122 (exists ((p Int) (a Int) (q Int) (b Int) (r Int) (s Int) )(! (let ((?x104 (- s r)))
 (let ((?x102 (- q p)))
 (let ((?x110 (- b a)))
 (let ((?x114 (+ (* a a ?x102 r r ?x104 ?x104) (* a a ?x110 ?x110 ?x110 ?x102 ?x102) (* ?x110 p p p ?x104) (* a a ?x110 ?x102 ?x102 ?x102 r r ?x104 ?x104 ?x104))))
 (let ((?x41 (* q00 r00)))
 (let ((?x108 (+ (- (+ (* (- 1) ?x102 r) (* p ?x104)) (* p00 s00)) ?x41)))
 (let ((?x84 (- r s)))
 (let ((?x91 (- a b)))
 (let ((?x96 (+ (* ?x91 ?x91 q ?x84 ?x84 s s) (* ?x91 ?x91 b b b q q) (* b (- p q) (- p q) (- p q) s) (* ?x91 ?x91 b q q q ?x84 ?x84 s s s))))
 (let ((?x37 (* p00 s00)))
 (let ((?x90 (+ (- (+ (* (- 1) q ?x84) (* (- p q) s)) ?x37) ?x41)))
 (let (($x120 (or (not (= (* ?x90 (- ?x96 (* ?x91 b (- p q) q))) 0)) (not (= (* ?x108 (- ?x114 (* a ?x110 p ?x102))) 0)))))
 (let ((?x81 (* a00 q00 s)))
 (let ((?x76 (* b p00 s00)))
 (let ((?x77 (- (+ (* b q00 r00) (* b00 p00 s)) (* b00 q r00))))
 (let ((?x69 (* a00 q00 r)))
 (let ((?x66 (* a q00 r00)))
 (let ((?x65 (* b00 p00 r)))
 (let ((?x68 (+ (- (* (- 1) b00 p r00) (* a p00 s00)) ?x65 ?x66 (* a00 p s00))))
 (let ((?x59 (* b p)))
 (let ((?x60 (+ (- (+ (* (- 1) a q) (* a00 q00)) (* b00 p00)) ?x59)))
 (let ((?x51 (* b00 r00)))
 (let ((?x49 (* a s)))
 (let (($x53 (= (+ (- (* (- 1) b r) (* a00 s00)) ?x49 ?x51) 0)))
 (let (($x44 (= (+ (- (+ (* (- 1) q r) (* p s)) ?x37) ?x41) 0)))
 (and $x44 $x53 (= ?x60 0) (= (- ?x68 ?x69) 0) (= (- (+ (- ?x77 ?x76) (* a00 q s00)) ?x81) 0) $x120)))))))))))))))))))))))))) :qid k!39))
 ))
 (let ((?x774 (lambda ((p Int) (a Int) (q Int) (b Int) (r Int) (s Int) )(let ((?x1146 (* (- 1) (* (+ b (* (- 1) a)) (+ q (* (- 1) p)) a p))))
 (let ((?x352 (* (- 1) p)))
 (let ((?x464 (+ q ?x352)))
 (let ((?x935 (* (- 1) a)))
 (let ((?x900 (+ b ?x935)))
 (let ((?x636 (* (- 1) r)))
 (let ((?x1138 (+ s ?x636)))
 (let ((?x716 (+ (* ?x1138 ?x1138 ?x464 r r a a) (* ?x900 ?x900 ?x900 ?x464 ?x464 a a) (* ?x1138 ?x900 p p p) (* ?x1138 ?x1138 ?x1138 ?x900 ?x464 ?x464 ?x464 r r a a) ?x1146)))
 (let ((?x41 (* q00 r00)))
 (let ((?x37 (* p00 s00)))
 (let ((?x147 (* (- 1) ?x37)))
 (let (($x938 (= (* (+ (* (- 1) (* ?x464 r)) (* ?x1138 p) ?x147 ?x41) ?x716) 0)))
 (let ((?x549 (* (- 1) (* (+ a (* (- 1) b)) (+ p (* (- 1) q)) b q))))
 (let ((?x669 (+ a (* (- 1) b))))
 (let ((?x264 (* (- 1) s)))
 (let ((?x1322 (+ r ?x264)))
 (let ((?x416 (+ p (* (- 1) q))))
 (let ((?x773 (+ (* ?x1322 ?x1322 ?x669 ?x669 s s q) (* ?x669 ?x669 b b b q q) (* ?x416 ?x416 ?x416 s b) (* ?x1322 ?x1322 ?x669 ?x669 s s s b q q q) ?x549)))
 (let (($x466 (= (* (+ (* (- 1) (* ?x1322 q)) (* ?x416 s) ?x147 ?x41) ?x773) 0)))
 (let (($x943 (or (not $x466) (not $x938))))
 (let ((?x73 (* b00 p00 s)))
 (let ((?x676 (+ (* q00 r00 b) ?x73 (* (- 1) (* b00 r00 q)) (* (- 1) (* p00 s00 b)) (* a00 s00 q) (* (- 1) (* a00 q00 s)))))
 (let (($x775 (= ?x676 0)))
 (let ((?x520 (* a00 s00 p)))
 (let ((?x135 (* q00 r00 a)))
 (let ((?x65 (* b00 p00 r)))
 (let ((?x1142 (+ (* (- 1) (* b00 r00 p)) (* (- 1) (* p00 s00 a)) ?x65 ?x135 ?x520 (* (- 1) (* a00 q00 r)))))
 (let ((?x59 (* b p)))
 (let ((?x55 (* a00 q00)))
 (let (($x559 (= (+ (* (- 1) (* q a)) ?x55 (* (- 1) (* b00 p00)) ?x59) 0)))
 (let ((?x51 (* b00 r00)))
 (let ((?x1317 (* s a)))
 (let (($x198 (= (+ (* (- 1) (* r b)) (* (- 1) (* a00 s00)) ?x1317 ?x51) 0)))
 (let (($x439 (and (= (+ (* (- 1) (* r q)) (* s p) ?x147 ?x41) 0) $x198 $x559 (= ?x1142 0) $x775 $x943)))
 (let ((?x104 (- s r)))
 (let ((?x102 (- q p)))
 (let ((?x110 (- b a)))
 (let ((?x114 (+ (* a a ?x102 r r ?x104 ?x104) (* a a ?x110 ?x110 ?x110 ?x102 ?x102) (* ?x110 p p p ?x104) (* a a ?x110 ?x102 ?x102 ?x102 r r ?x104 ?x104 ?x104))))
 (let ((?x117 (* (+ (- (+ (* (- 1) ?x102 r) (* p ?x104)) ?x37) ?x41) (- ?x114 (* a ?x110 p ?x102)))))
 (let ((?x84 (- r s)))
 (let ((?x91 (- a b)))
 (let ((?x96 (+ (* ?x91 ?x91 q ?x84 ?x84 s s) (* ?x91 ?x91 b b b q q) (* b (- p q) (- p q) (- p q) s) (* ?x91 ?x91 b q q q ?x84 ?x84 s s s))))
 (let ((?x90 (+ (- (+ (* (- 1) q ?x84) (* (- p q) s)) ?x37) ?x41)))
 (let (($x120 (or (not (= (* ?x90 (- ?x96 (* ?x91 b (- p q) q))) 0)) (not (= ?x117 0)))))
 (let ((?x81 (* a00 q00 s)))
 (let ((?x76 (* b p00 s00)))
 (let ((?x80 (+ (- (- (+ (* b q00 r00) ?x73) (* b00 q r00)) ?x76) (* a00 q s00))))
 (let ((?x69 (* a00 q00 r)))
 (let ((?x66 (* a q00 r00)))
 (let ((?x68 (+ (- (* (- 1) b00 p r00) (* a p00 s00)) ?x65 ?x66 (* a00 p s00))))
 (let (($x61 (= (+ (- (+ (* (- 1) a q) ?x55) (* b00 p00)) ?x59) 0)))
 (let (($x53 (= (+ (- (* (- 1) b r) (* a00 s00)) (* a s) ?x51) 0)))
 (let (($x44 (= (+ (- (+ (* (- 1) q r) (* p s)) ?x37) ?x41) 0)))
 (let (($x121 (and $x44 $x53 $x61 (= (- ?x68 ?x69) 0) (= (- ?x80 ?x81) 0) $x120)))
 (rewrite (= $x121 $x439)))))))))))))))))))))))))))))))))))))))))))))))))))))))))
 ))
 (let ((@x123 (asserted $x122)))
 (let ((@x565 (mp (mp @x123 (quant-intro (proof-bind ?x774) (= $x122 $x1195)) $x1195) (rewrite (= $x1195 $x1195)) $x1195)))
 (let ((@x418 (mp (mp @x565 (quant-intro (proof-bind ?x839) (= $x1195 $x1033)) $x1033) (quant-intro (proof-bind ?x639) (= $x1033 $x637)) $x637)))
 (let ((@x1242 (mp (mp~ @x418 (sk (~ $x637 $x1149)) $x1149) (rewrite (= $x1149 $x1378)) $x1378)))
 (let ((@x1062 (and-elim @x1242 $x643)))
 (let ((@x1059 (unit-resolution ((_ th-lemma arith triangle-eq) (or (not $x643) $x645)) @x1062 $x645)))
 (let (($x689 (<= ?x692 0)))
 (let ((@x686 (unit-resolution ((_ th-lemma arith triangle-eq) (or (not $x643) $x689)) @x1062 $x689)))
 (let (($x704 (not (<= ?x964 0))))
 (let (($x1210 (>= ?x1172 0)))
 (let (($x1213 (<= ?x1172 0)))
 (let ((@x701 (unit-resolution ((_ th-lemma arith triangle-eq) (or $x126 (not $x1213) (not $x1210))) (lemma ((_ th-lemma arith farkas 1 1 1) (hypothesis (not $x1213)) @x686 @x1059 false) $x1213) (lemma ((_ th-lemma arith farkas 1 1 1) (hypothesis (not $x1210)) @x686 @x1059 false) $x1210) $x126)))
 (let (($x1215 (>= ?x964 0)))
 (let ((@x699 (unit-resolution ((_ th-lemma arith triangle-eq) (or $x907 $x704 (not $x1215))) (lemma ((_ th-lemma arith farkas 1 1 1) (hypothesis (not $x1215)) @x686 @x1059 false) $x1215) (unit-resolution (and-elim @x1242 $x1063) @x701 $x1124) $x704)))
 ((_ th-lemma arith farkas 1 1 1) @x699 @x686 @x1059 false))))))))))))))))))))))))))))))))))))))))))))))))))))))))))))))))))))))))))))))))))))))))))))))

(:added-eqs                 6
 :arith-assert-diseq        3
 :arith-assert-lower        25
 :arith-assert-upper        18
 :arith-conflicts           4
 :arith-eq-adapter          7
 :arith-fixed-eqs           6
 :arith-max-min             760
 :arith-nonlinear-bounds    6
 :arith-num-rows            11
 :arith-pivots              5
 :arith-pseudo-nonlinear    8
 :arith-row-summations      1
 :arith-tableau-max-columns 109
 :arith-tableau-max-rows    11
 :conflicts                 4
 :decisions                 7
 :del-clause                15
 :final-checks              4
 :max-memory                3.77
 :memory                    3.25
 :mk-bool-var               27
 :mk-clause                 24
 :num-allocs                1214123
 :num-checks                1
 :propagations              19
 :rlimit-count              7881
 :time                      0.01
 :total-time                0.02)
